 vasp.5.4.4.18Apr17-6-g9f103f2a35 (build Feb 23 2022 11:43:59) gamma-only

 executed on             LinuxIFC date 2024.07.19  18:51:43

 INCAR:
 POTCAR:    PAW_PBE Ru_pv 28Jan2005
 POTCAR:    PAW_PBE N 08Apr2002
 POTCAR:    PAW_PBE H 15Jun2001
 POTCAR:    PAW_PBE Ru_pv 28Jan2005
   VRHFIN =Ru: 4p5s4d

   TITEL  = PAW_PBE Ru_pv 28Jan2005
   POMASS =  101.070; ZVAL   =   14.000    mass and valenz
   ENMAX  =  240.049; ENMIN  =  180.037 eV

 POTCAR:    PAW_PBE N 08Apr2002
   VRHFIN =N: s2p3

   TITEL  = PAW_PBE N 08Apr2002
   POMASS =   14.001; ZVAL   =    5.000    mass and valenz
   ENMAX  =  400.000; ENMIN  =  300.000 eV

 POTCAR:    PAW_PBE H 15Jun2001
   VRHFIN =H: ultrasoft test

   TITEL  = PAW_PBE H 15Jun2001
   POMASS =    1.000; ZVAL   =    1.000    mass and valenz
   ENMAX  =  250.000; ENMIN  =  200.000 eV

 Optimization of the real space projectors (new method)

 maximal supplied QI-value         = 15.12
 optimisation between [QCUT,QGAM] = [ 11.34, 22.83] = [ 36.00,145.93] Ry
 Optimized for a Real-space Cutoff    1.43 Angstroem

   l    n(q)    QCUT    max X(q) W(low)/X(q) W(high)/X(q)  e(spline)
   1      9    11.338     3.180    0.41E-04    0.57E-05    0.54E-07
   1      9    11.338     5.351    0.17E-03    0.94E-04    0.32E-06
   2      9    11.338    66.565    0.29E-03    0.11E-04    0.27E-06
   2      9    11.338    63.466    0.30E-03    0.11E-04    0.28E-06
   0     10    11.338    85.644    0.87E-04    0.33E-04    0.16E-06
   0     10    11.338    44.119    0.80E-04    0.30E-04    0.15E-06
 Optimization of the real space projectors (new method)

[...]

   l    n(q)    QCUT    max X(q) W(low)/X(q) W(high)/X(q)  e(spline)
   0      9    11.310    79.467    0.75E-04    0.16E-03    0.36E-06
   0      9    11.310    66.151    0.74E-04    0.16E-03    0.36E-06
   1      8    11.310    17.416    0.35E-03    0.12E-03    0.95E-06
   1      8    11.310    12.382    0.37E-03    0.13E-03    0.98E-06
 Optimization of the real space projectors (new method)

 maximal supplied QI-value         = 34.20
 optimisation between [QCUT,QGAM] = [ 11.29, 22.57] = [ 35.68,142.71] Ry
 Optimized for a Real-space Cutoff    1.16 Angstroem

   l    n(q)    QCUT    max X(q) W(low)/X(q) W(high)/X(q)  e(spline)
   0      8    11.287    19.460    0.40E-03    0.73E-03    0.16E-06
   0      8    11.287    12.209    0.38E-03    0.70E-03    0.15E-06
   1      7    11.287     4.655    0.22E-03    0.25E-04    0.22E-06
  PAW_PBE Ru_pv 28Jan2005               :
  PAW_PBE N 08Apr2002                   :
  PAW_PBE H 15Jun2001                   :

 POSCAR: Ru  N  H
  positions in cartesian coordinates
 exchange correlation table for  LEXCH =        8
   RHO(1)=    0.500       N(1)  =     2000
   RHO(2)=  100.500       N(2)  =     4000

 VTST: version 3.2, (02/03/18)

 CHAIN: initializing optimizer

 OPT: Using VASP Conjugate-Gradient optimizer
 CHAIN: Read ICHAIN            0

 POSCAR: Ru  N  H
  positions in cartesian coordinates

 ion  position               nearest neighbor table
   1  0.083  0.167  0.283-  19 2.63  24 2.64   4 2.65  18 2.65  23 2.65   3 2.65  61 2.71  76 2.71
                            21 2.71  26 2.71   6 2.71  16 2.71
   2  0.084  0.166  0.449-   5 2.59  20 2.61  25 2.61   4 2.64  24 2.65  19 2.65  17 2.70  77 2.70
                            22 2.70  62 2.72   7 2.73  27 2.73
   3  0.167  0.083  0.200-  61 2.65   6 2.65   1 2.65  18 2.71  78 2.71   8 2.71  28 2.71  23 2.71
                            63 2.71
   4  0.167  0.083  0.366-   6 2.64  61 2.64  62 2.64   2 2.64   1 2.65   7 2.66  19 2.70  24 2.70
                            29 2.71   9 2.71  79 2.71  64 2.71
   5  0.167  0.076  0.528-  62 2.54   7 2.57   2 2.59  65 2.64  10 2.68  80 2.68  30 2.71  25 2.74
                            20 2.77
   6  0.333  0.167  0.283-   4 2.64   9 2.64  29 2.64  28 2.65   3 2.65   8 2.65  66 2.71  11 2.71
                            31 2.71  61 2.71  26 2.71   1 2.71
   7  0.336  0.166  0.449-   5 2.57  10 2.59  30 2.62   9 2.64  29 2.65   4 2.66  12 2.70  32 2.70
                            67 2.70   2 2.73  62 2.73  27 2.73
   8  0.417  0.083  0.200-  66 2.65  11 2.65   6 2.65   3 2.71  28 2.71  63 2.71  33 2.71  68 2.71
                            13 2.71
   9  0.418  0.084  0.366-  11 2.63  66 2.63  67 2.64   6 2.64  12 2.64   7 2.64  34 2.70  29 2.70
                            14 2.71   4 2.71  69 2.71  64 2.72
  10  0.414  0.076  0.529-  67 2.56  65 2.59   7 2.59  12 2.61  70 2.65   5 2.68  15 2.75  30 2.79
                            35 2.79
  11  0.583  0.167  0.283-   9 2.63  34 2.64  14 2.64   8 2.65  33 2.65  13 2.65  66 2.71  71 2.71
                             6 2.71  31 2.71  36 2.71  16 2.71
  12  0.584  0.165  0.449-  35 2.60  15 2.60  10 2.61  14 2.63   9 2.64  34 2.64  67 2.69  72 2.69
                             7 2.70  32 2.71  17 2.71  37 2.71
  13  0.667  0.083  0.200-  16 2.65  71 2.65  11 2.65  18 2.71  38 2.71  33 2.71  73 2.71  68 2.71
                             8 2.71
  14  0.667  0.083  0.366-  16 2.63  71 2.63  12 2.63  72 2.64  11 2.64  17 2.65  69 2.70  74 2.71
                             9 2.71  34 2.71  39 2.71  19 2.71
  15  0.673  0.086  0.529-  17 2.57  12 2.60  72 2.61  40 2.62  20 2.64  35 2.65  75 2.72  10 2.75
                            70 2.79
  16  0.833  0.167  0.283-  14 2.63  39 2.63  19 2.64  13 2.65  38 2.65  18 2.65  76 2.71  71 2.71
                            36 2.71  11 2.71  21 2.71   1 2.71
  17  0.835  0.166  0.449-  15 2.57  40 2.59  20 2.59  19 2.64  39 2.65  14 2.65   2 2.70  37 2.70
                            22 2.70  72 2.70  77 2.71  12 2.71
  18  0.917  0.083  0.200-   1 2.65  76 2.65  16 2.65   3 2.71  23 2.71  13 2.71  38 2.71  73 2.71
                            78 2.71
  19  0.918  0.083  0.366-   1 2.63  76 2.64  17 2.64  77 2.64  16 2.64   2 2.65  24 2.70   4 2.70
                            39 2.71  79 2.71  14 2.71  74 2.72
  20  0.912  0.078  0.529-  77 2.57  17 2.59  75 2.60   2 2.61  15 2.64  80 2.66  40 2.74   5 2.77
                            25 2.81
  21  0.083  0.417  0.283-  44 2.63  39 2.63  38 2.65  43 2.65  23 2.65  24 2.65   1 2.71  26 2.71
                            16 2.71  46 2.71  36 2.71  41 2.71
  22  0.085  0.416  0.450-  45 2.61  40 2.62  24 2.64  25 2.64  39 2.66  44 2.66  17 2.70   2 2.70
                            42 2.70  37 2.71  27 2.71  47 2.72
  23  0.167  0.333  0.200-   1 2.65  26 2.65  21 2.65  43 2.71  38 2.71  48 2.71  18 2.71  28 2.71
                             3 2.71
  24  0.167  0.333  0.366-   1 2.64  26 2.64  22 2.64   2 2.65  21 2.65  27 2.66  19 2.70   4 2.70
                            39 2.70  44 2.71  49 2.71  29 2.71
  25  0.175  0.333  0.531-  81 2.12  30 2.57  27 2.58   2 2.61  22 2.64  50 2.71   5 2.74  45 2.77
                            20 2.81  40 2.83
  26  0.333  0.417  0.283-  49 2.63  24 2.64  48 2.65  23 2.65  28 2.65  29 2.65  31 2.71   6 2.71
                            51 2.71   1 2.71  21 2.71  46 2.71
  27  0.336  0.418  0.449-  25 2.58  50 2.59  30 2.60  29 2.65  49 2.65  24 2.66  52 2.70  47 2.70
                            32 2.71  22 2.71   7 2.73   2 2.73
  28  0.417  0.333  0.200-  31 2.65   6 2.65  26 2.65  48 2.71  53 2.71  23 2.71   3 2.71   8 2.71
                            33 2.71
  29  0.418  0.333  0.366-  31 2.64   6 2.64  27 2.65   7 2.65  26 2.65  32 2.67  54 2.70  34 2.70
                             9 2.70  49 2.70   4 2.71  24 2.71
  30  0.411  0.332  0.531-  81 2.14  25 2.57  27 2.60   7 2.62  32 2.64   5 2.71  50 2.75  10 2.79
                            55 2.80  35 2.85
  31  0.583  0.417  0.283-  54 2.64  29 2.64  34 2.64  28 2.65  53 2.65  33 2.65  26 2.71   6 2.71
                            11 2.71  36 2.71  56 2.71  51 2.71
  32  0.585  0.416  0.450-  55 2.60  35 2.61  30 2.64  34 2.66  29 2.67  54 2.67   7 2.70  57 2.70
                            27 2.71  37 2.71  12 2.71  52 2.72
  33  0.667  0.333  0.200-  36 2.65  11 2.65  31 2.65  53 2.71  58 2.71  38 2.71  13 2.71   8 2.71
                            28 2.71
  34  0.667  0.333  0.366-  11 2.64  36 2.64  31 2.64  12 2.64  37 2.65  32 2.66  54 2.70  29 2.70
                             9 2.70  14 2.71  59 2.71  39 2.72
  35  0.674  0.331  0.530-  83 1.94  37 2.56  40 2.58  12 2.60  32 2.61  15 2.65  60 2.66  55 2.78
                            10 2.79  30 2.85
  36  0.833  0.417  0.283-  59 2.63  34 2.64  39 2.64  33 2.65  58 2.65  38 2.65  11 2.71  16 2.71
                            31 2.71  21 2.71  41 2.71  56 2.71
  37  0.835  0.415  0.449-  35 2.56  60 2.56  40 2.57  39 2.64  34 2.65  59 2.65  17 2.70  22 2.71
                            57 2.71  32 2.71  12 2.71  42 2.72
  38  0.917  0.333  0.200-  21 2.65  16 2.65  36 2.65  43 2.71  58 2.71  23 2.71  33 2.71  13 2.71
                            18 2.71
  39  0.918  0.333  0.366-  21 2.63  16 2.63  37 2.64  36 2.64  17 2.65  22 2.66  44 2.70  24 2.70
                            19 2.71  59 2.71  14 2.71  34 2.72
  40  0.912  0.331  0.530-  37 2.57  35 2.58  17 2.59  22 2.62  15 2.62  60 2.67  20 2.74  45 2.80
                            25 2.83
  41  0.083  0.667  0.283-  64 2.63  59 2.63  44 2.64  63 2.65  58 2.65  43 2.65  61 2.71  66 2.71
                            46 2.71  56 2.71  36 2.71  21 2.71
  42  0.086  0.666  0.448-  45 2.59  60 2.60  65 2.61  44 2.62  64 2.64  59 2.64  47 2.69  62 2.70
                            22 2.70  67 2.71  37 2.72  57 2.72
  43  0.167  0.583  0.200-  21 2.65  46 2.65  41 2.65  23 2.71  38 2.71  58 2.71  63 2.71  68 2.71
                            48 2.71
  44  0.167  0.582  0.366-  42 2.62  21 2.63  46 2.63  41 2.64  47 2.64  22 2.66  39 2.70  59 2.70
                            24 2.71  64 2.71  49 2.71  69 2.72
  45  0.173  0.588  0.529-  47 2.57  42 2.59  22 2.61  70 2.62  50 2.65  65 2.68  60 2.72  25 2.77
                            40 2.80
  46  0.333  0.667  0.283-  69 2.63  44 2.63  49 2.64  68 2.65  43 2.65  48 2.65  51 2.71  71 2.71
                            66 2.71  41 2.71  21 2.71  26 2.71
  47  0.335  0.667  0.448-  50 2.55  45 2.57  70 2.58  49 2.64  69 2.64  44 2.64  42 2.69  27 2.70
                            67 2.70  52 2.71  72 2.71  22 2.72
  48  0.417  0.583  0.200-  26 2.65  51 2.65  46 2.65  28 2.71  23 2.71  68 2.71  43 2.71  73 2.71
                            53 2.71
  49  0.418  0.583  0.366-  51 2.63  26 2.63  47 2.64  46 2.64  52 2.65  27 2.65  29 2.70  54 2.71
                            74 2.71  24 2.71  69 2.71  44 2.71
  50  0.418  0.589  0.528-  47 2.55  52 2.58  27 2.59  45 2.65  70 2.65  25 2.71  75 2.72  30 2.75
                            55 2.76
  51  0.583  0.667  0.283-  49 2.63  74 2.63  73 2.65  48 2.65  53 2.65  54 2.65  46 2.71  71 2.71
                            76 2.71  26 2.71  56 2.71  31 2.71
  52  0.585  0.667  0.449-  50 2.58  55 2.60  75 2.60  54 2.63  74 2.64  49 2.65  27 2.70  77 2.70
                            72 2.71  47 2.71  57 2.71  32 2.72
  53  0.667  0.583  0.200-  56 2.65  31 2.65  51 2.65  33 2.71  73 2.71  78 2.71  28 2.71  58 2.71
                            48 2.71
  54  0.667  0.582  0.366-  52 2.63  31 2.64  56 2.64  57 2.65  51 2.65  32 2.67  34 2.70  29 2.70
[...]
   -.218E+01 -.204E+01 0.332E+04   0.217E+01 0.214E+01 -.332E+04   0.615E-01 -.598E-01 -.671E+00   0.292E-02 -.167E-01 -.565E-01
   -.946E+01 -.110E+02 -.318E+04   0.964E+01 0.113E+02 0.318E+04   -.234E+00 -.350E+00 0.401E+00   0.513E-01 0.234E-01 0.249E+00
   0.153E-01 -.589E+00 0.655E+04   0.300E-01 0.619E+00 -.654E+04   0.143E-01 0.387E-03 -.437E+01   0.149E-01 -.306E-01 -.106E+00
   -.475E+01 -.616E+01 0.608E+02   0.472E+01 0.611E+01 -.609E+02   0.413E-01 0.521E-01 -.152E-01   -.515E-02 -.104E-01 0.140E+00
   -.609E+02 -.131E+02 -.650E+04   0.610E+02 0.128E+02 0.649E+04   -.134E+00 0.255E+00 0.448E+01   0.239E-01 0.195E-01 0.115E+00
   0.251E+01 -.145E+01 0.332E+04   -.260E+01 0.148E+01 -.332E+04   0.428E-01 0.193E-01 -.627E+00   0.989E-02 -.165E-01 -.710E-01
   0.159E+02 0.518E+01 -.319E+04   -.159E+02 -.505E+01 0.319E+04   0.256E-02 -.134E+00 0.283E+00   -.622E-01 -.479E-02 0.271E+00
   0.105E+00 -.436E+00 0.655E+04   -.148E+00 0.341E+00 -.654E+04   0.711E-01 -.458E-01 -.433E+01   0.217E-01 -.266E-01 -.110E+00
   0.813E+01 0.342E+01 0.785E+02   -.802E+01 -.347E+01 -.787E+02   -.782E-01 0.624E-01 0.755E-01   -.237E-01 -.258E-01 0.936E-01
   0.518E+02 0.130E+03 -.654E+04   -.516E+02 -.129E+03 0.653E+04   -.966E-01 -.108E+01 0.438E+01   -.102E+00 -.260E-01 0.138E+00
   -.334E+01 0.291E+00 0.332E+04   0.344E+01 -.210E+00 -.332E+04   -.254E-01 0.686E-03 -.590E+00   -.786E-02 -.191E-01 -.100E+00
   -.214E+02 -.376E+00 -.318E+04   0.214E+02 0.428E+00 0.318E+04   0.538E-01 -.407E-01 0.339E+00   -.516E-01 -.215E-01 0.222E+00
   -.234E+00 -.215E+00 0.655E+04   0.283E+00 0.236E+00 -.654E+04   -.235E-01 0.340E-01 -.444E+01   -.109E-01 -.439E-01 -.116E+00
   -.135E+02 -.639E+01 0.481E+02   0.135E+02 0.641E+01 -.482E+02   0.137E-01 0.214E-01 0.279E-01   -.153E-01 -.375E-01 0.792E-01
   -.472E+02 -.339E+02 -.650E+04   0.466E+02 0.334E+02 0.649E+04   0.725E+00 0.516E+00 0.448E+01   -.227E-01 -.332E-01 0.143E+00
   -.727E+00 0.357E+01 0.332E+04   0.687E+00 -.369E+01 -.332E+04   0.294E-01 0.200E-01 -.657E+00   -.135E-01 0.400E-01 -.101E+00
   0.113E+02 0.184E+02 -.322E+04   -.109E+02 -.187E+02 0.322E+04   -.427E+00 0.223E+00 -.348E-01   0.201E-01 0.445E-01 0.235E+00
   -.401E+00 0.338E+00 0.655E+04   0.290E+00 -.504E+00 -.654E+04   -.103E+00 0.555E-01 -.460E+01   -.267E-01 0.300E-01 -.118E+00
   0.729E+00 0.128E+02 0.603E+02   -.730E+00 -.127E+02 -.605E+02   -.304E-02 -.425E-01 0.112E+00   0.195E-01 0.307E-01 0.106E+00
   0.217E+03 0.391E+02 -.635E+04   -.217E+03 -.388E+02 0.635E+04   -.159E-01 -.373E+00 0.171E+01   0.694E-01 0.623E-01 0.131E+00
   -.158E+01 -.147E+00 0.332E+04   0.161E+01 0.355E-01 -.332E+04   -.899E-03 0.120E+00 -.696E+00   0.131E-01 0.487E-01 -.697E-01
   -.120E+02 -.119E+01 -.315E+04   0.119E+02 0.979E+00 0.315E+04   0.282E-01 0.177E+00 0.366E+00   0.566E-01 0.328E-01 0.263E+00
   -.666E-01 0.122E+00 0.655E+04   0.778E-01 -.157E+00 -.654E+04   0.162E+00 0.613E-01 -.472E+01   0.728E-02 0.415E-01 -.108E+00
   -.628E+01 -.114E+01 0.555E+02   0.621E+01 0.114E+01 -.558E+02   0.532E-01 -.178E-01 0.121E+00   0.110E-01 0.180E-01 0.131E+00
   -.220E+03 -.220E+02 -.634E+04   0.219E+03 0.217E+02 0.633E+04   0.252E+00 0.296E+00 0.190E+01   0.433E-01 0.255E-01 0.114E+00
   0.401E+00 0.316E+01 0.332E+04   -.343E+00 -.319E+01 -.332E+04   0.975E-03 -.358E-01 -.680E+00   -.119E-02 0.503E-01 -.698E-01
   -.257E+01 0.331E+01 -.326E+04   0.221E+01 -.369E+01 0.326E+04   0.397E+00 0.376E+00 -.517E-01   -.338E-01 -.890E-02 0.263E+00
   0.121E+00 0.514E+00 0.655E+04   -.301E+00 -.330E+00 -.654E+04   -.493E-03 -.707E-01 -.446E+01   0.147E-01 0.300E-01 -.110E+00
   0.116E+01 -.205E+01 0.530E+02   -.116E+01 0.206E+01 -.532E+02   0.405E-01 -.394E-01 0.264E-01   -.270E-01 0.224E-01 0.120E+00
   0.839E+02 -.192E+02 -.651E+04   -.832E+02 0.184E+02 0.651E+04   -.679E+00 0.790E+00 0.407E+01   -.848E-01 -.166E-01 0.128E+00
   0.163E+01 0.319E+01 0.332E+04   -.168E+01 -.321E+01 -.332E+04   0.236E-01 -.683E-01 -.803E+00   0.141E-02 0.326E-01 -.837E-01
   0.200E+01 -.289E+02 -.320E+04   -.195E+01 0.290E+02 0.320E+04   0.271E-01 -.614E-01 0.426E+00   -.649E-01 0.628E-02 0.233E+00
   0.388E+00 0.531E+00 0.655E+04   -.843E-01 -.458E+00 -.654E+04   -.859E-01 -.707E-01 -.439E+01   0.476E-02 0.131E-01 -.116E+00
   0.419E+01 -.448E+01 0.655E+02   -.412E+01 0.442E+01 -.658E+02   -.576E-01 0.349E-01 0.160E+00   -.183E-01 0.255E-01 0.897E-01
   -.782E+02 -.850E+02 -.651E+04   0.779E+02 0.845E+02 0.650E+04   0.334E+00 0.503E+00 0.475E+01   -.562E-01 0.118E-01 0.147E+00
   0.173E+01 -.532E+00 0.332E+04   -.178E+01 0.542E+00 -.332E+04   0.752E-01 0.110E-01 -.795E+00   -.579E-02 0.521E-02 -.959E-01
   0.397E+02 0.120E+02 -.318E+04   -.397E+02 -.121E+02 0.318E+04   -.733E-01 0.854E-01 0.281E+00   0.561E-02 0.368E-01 0.210E+00
   -.247E+00 0.169E+00 0.655E+04   0.134E+00 -.305E+00 -.654E+04   0.608E-01 0.714E-01 -.426E+01   0.310E-02 0.227E-01 -.110E+00
   0.877E+01 0.214E+01 0.849E+02   -.871E+01 -.211E+01 -.851E+02   -.646E-01 -.500E-01 0.857E-01   0.647E-02 0.309E-01 0.880E-01
   0.104E+03 0.552E+02 -.652E+04   -.104E+03 -.546E+02 0.651E+04   -.264E+00 -.639E+00 0.453E+01   0.456E-01 0.496E-01 0.134E+00
   -.486E+01 0.601E+00 0.332E+04   0.492E+01 -.616E+00 -.332E+04   -.230E-01 -.596E-01 -.677E+00   0.647E-02 0.103E-01 -.988E-01
   -.194E+02 -.155E+02 -.315E+04   0.192E+02 0.153E+02 0.315E+04   0.211E+00 0.986E-01 0.354E+00   0.191E-01 0.370E-01 0.247E+00
   -.266E+00 0.600E+00 0.655E+04   0.351E+00 -.393E+00 -.654E+04   -.536E-01 -.779E-01 -.446E+01   0.211E-02 0.477E-01 -.107E+00
   -.586E+01 -.242E+01 0.582E+02   0.580E+01 0.236E+01 -.583E+02   0.449E-01 0.268E-01 0.265E-01   0.176E-01 0.273E-01 0.117E+00
   -.442E+02 -.823E+02 -.641E+04   0.441E+02 0.835E+02 0.640E+04   0.112E+00 -.114E+01 0.508E+01   0.170E-01 0.545E-02 0.127E+00
   0.259E+01 0.242E+01 0.332E+04   -.266E+01 -.249E+01 -.332E+04   0.345E-01 -.104E-01 -.665E+00   0.138E-01 0.108E-01 -.948E-01
   0.150E+02 0.994E+01 -.316E+04   -.148E+02 -.994E+01 0.316E+04   -.239E+00 0.189E-01 0.309E+00   -.143E-01 -.997E-02 0.239E+00
   0.235E+00 0.594E-01 0.655E+04   -.183E+00 -.415E+00 -.654E+04   -.205E-01 0.521E-01 -.449E+01   0.780E-02 0.601E-01 -.102E+00
   -.567E+01 0.700E+01 0.666E+02   0.566E+01 -.698E+01 -.668E+02   0.217E-01 -.295E-01 0.357E-01   -.148E-01 0.116E-01 0.962E-01
   0.392E+01 0.738E+02 -.649E+04   -.415E+01 -.727E+02 0.649E+04   0.281E+00 -.104E+01 0.383E+01   -.459E-01 -.358E-01 0.108E+00
   -.195E+00 -.101E+01 0.332E+04   0.253E+00 0.968E+00 -.332E+04   -.595E-01 0.382E-01 -.789E+00   -.147E-01 0.238E-01 -.105E+00
   -.345E+02 0.163E+02 -.320E+04   0.344E+02 -.163E+02 0.320E+04   0.154E+00 0.526E-01 0.406E+00   -.331E-01 -.840E-02 0.200E+00
   0.271E+00 0.745E-01 0.655E+04   -.323E+00 -.240E+00 -.654E+04   0.366E-01 0.118E-01 -.454E+01   -.132E-01 0.425E-01 -.107E+00
   0.274E+01 -.232E+01 0.603E+02   -.271E+01 0.230E+01 -.605E+02   -.120E-01 0.674E-02 0.663E-01   -.249E-01 0.238E-01 0.899E-01
   -.638E+02 -.316E+02 -.648E+04   0.639E+02 0.318E+02 0.647E+04   -.596E-01 -.121E+00 0.379E+01   -.492E-01 -.652E-02 0.126E+00
[...]
   0.484E+00 -.698E+00 0.332E+04   -.546E+00 0.653E+00 -.332E+04   0.467E-01 0.415E-01 -.768E+00   0.772E-02 -.267E-01 -.894E-01
   0.139E+02 0.386E+01 -.322E+04   -.138E+02 -.382E+01 0.322E+04   -.721E-01 -.152E-01 0.383E+00   -.510E-01 -.304E-01 0.242E+00
   -.227E+00 -.128E-01 0.655E+04   0.550E-01 0.860E-01 -.654E+04   -.421E-01 0.665E-01 -.429E+01   0.212E-01 -.255E-01 -.102E+00
   0.107E+02 0.263E+01 0.843E+02   -.106E+02 -.249E+01 -.846E+02   -.483E-01 -.941E-01 0.101E+00   -.872E-02 -.278E-01 0.920E-01
   0.123E+03 -.354E+02 -.653E+04   -.122E+03 0.350E+02 0.653E+04   -.858E+00 0.467E+00 0.435E+01   -.467E-01 -.337E-01 0.122E+00
   -.316E+01 -.459E+01 0.332E+04   0.321E+01 0.466E+01 -.332E+04   0.509E-01 0.104E-01 -.635E+00   0.104E-01 -.427E-01 -.106E+00
   -.126E+02 -.205E+02 -.317E+04   0.126E+02 0.205E+02 0.317E+04   0.792E-01 0.613E-01 0.390E+00   -.172E-01 -.570E-01 0.212E+00
   0.171E+00 -.542E-01 0.655E+04   -.517E-01 0.383E+00 -.654E+04   -.417E-01 -.103E+00 -.442E+01   -.150E-01 -.311E-01 -.105E+00
   -.127E+02 0.293E-01 0.599E+02   0.128E+02 0.296E-01 -.601E+02   -.549E-01 -.452E-01 0.650E-01   -.270E-02 -.197E-01 0.836E-01
   -.876E+02 -.919E+01 -.652E+04   0.871E+02 0.934E+01 0.652E+04   0.503E+00 -.108E+00 0.436E+01   -.354E-01 -.387E-01 0.122E+00
   0.798E+00 0.795E+01 -.261E+04   -.865E+00 -.798E+01 0.260E+04   0.576E-01 0.182E-01 0.121E+02   0.166E-01 0.135E-01 -.561E-02
   -.686E+00 -.552E+02 -.526E+03   0.756E+00 0.611E+02 0.530E+03   -.510E-01 -.591E+01 -.422E+01   0.129E-02 0.892E-03 -.334E-02
   0.836E+00 0.732E+00 -.553E+03   -.938E+00 -.768E+00 0.554E+03   0.815E-01 0.395E-01 -.135E+01   -.228E-02 -.394E-02 0.319E-03
   0.776E+00 0.556E+02 -.525E+03   -.822E+00 -.615E+02 0.530E+03   0.287E-01 0.585E+01 -.424E+01   0.281E-02 0.331E-02 -.114E-02
   0.652E-01 -.581E+00 0.295E+01   -.877E-13 0.122E-11 0.546E-11   0.262E+00 0.379E+00 -.745E+01   -.285E+00 0.165E+00 0.428E+01

 POSITION                                       TOTAL-FORCE (eV/Angst)
     -0.00005      1.56339      7.26803        -0.035287     -0.036485     -0.665785
      0.00528      1.56701     11.53804         0.009352      0.001525     -0.009367
      1.35397      0.78165      5.13406        -0.141627     -0.110987      0.766710
      1.36124      0.78737      9.38821         0.006869      0.021865     -0.004669
      1.40047      0.70987     13.56774        -0.012637      0.000726     -0.013311
      2.70777      1.56339      7.26803         0.050797      0.018917     -0.832307
      2.72110      1.56441     11.53353         0.004867      0.001336     -0.021219
      4.06179      0.78165      5.13406         0.074076     -0.000363      0.749036
      4.05762      0.78481      9.40344         0.006335      0.000873      0.002605
      4.06797      0.75282     13.58483        -0.026311      0.025134     -0.008349
      5.41560      1.56339      7.26803        -0.037435      0.034332     -0.761875
      5.43119      1.55725     11.51248        -0.033043     -0.007809      0.006109
      6.76962      0.78165      5.13406         0.049467     -0.166802      0.783107
      6.77927      0.79306      9.38990         0.003439     -0.013439     -0.013141
      6.81149      0.86101     13.61483         0.000843     -0.022805     -0.000288
      8.12342      1.56339      7.26803         0.057947      0.063135     -0.780297
      8.11971      1.56347     11.52672         0.002900     -0.009644     -0.008215
      9.47744      0.78165      5.13406         0.014703      0.012199      0.694845
      9.47959      0.78280      9.40954        -0.019019      0.007119      0.008185
      9.42108      0.73411     13.59286         0.011925      0.015237      0.000709
     -1.35397      3.90844      7.26803        -0.024326     -0.054715     -0.751990
     -1.36110      3.91891     11.52300        -0.022180     -0.001853      0.019150
      0.00005      3.12670      5.13406        -0.240977     -0.079914      0.889354
      0.00452      3.13316      9.39793         0.015485      0.005114     -0.007635
      0.06391      3.16567     13.63186         0.009424     -0.009793      0.024923
      1.35386      3.90844      7.26803         0.046752      0.058187     -0.919671
      1.35680      3.90530     11.52443         0.004967     -0.004734     -0.015611
      2.70788      3.12670      5.13406         0.180326      0.068072      0.791330
      2.70979      3.12951      9.39833        -0.008674      0.001077     -0.014311
      2.64260      3.11274     13.61869         0.003444     -0.006376      0.022103
      4.06168      3.90844      7.26803         0.057546     -0.021245     -0.604438
      4.08157      3.90666     11.55264        -0.004003     -0.017797     -0.005203
      5.41570      3.12670      5.13406        -0.166816      0.143975      0.884068
      5.41315      3.13374      9.40179         0.012352     -0.007076     -0.009427
      5.49745      3.07352     13.62025        -0.024024      0.008996      0.002835
      6.76951      3.90844      7.26803        -0.026474     -0.056240     -0.912867
      6.77657      3.90061     11.53767         0.007206     -0.012806     -0.021840
      8.12353      3.12670      5.13406         0.222344      0.016001      0.780585
      8.13235      3.12573      9.39304        -0.002025      0.000408      0.001985
      8.09905      3.06690     13.59228         0.002744      0.017995      0.012032
     -2.70788      6.25349      7.26803         0.019734      0.026429     -0.804965
     -2.68088      6.25343     11.50258        -0.012035     -0.012528     -0.010735
     -1.35386      5.47174      5.13406        -0.049840     -0.041965      0.896809
     -1.34340      5.46987      9.38643         0.007932      0.006535     -0.002111
     -1.28751      5.52704     13.59698         0.001697      0.004621      0.008015
     -0.00005      6.25349      7.26803         0.051257     -0.063518     -0.769303
     -0.01112      6.25152     11.51499        -0.015288     -0.007365     -0.007775
      1.35397      5.47174      5.13406         0.033061      0.177554      0.737337
      1.35826      5.47298      9.40683         0.000949     -0.009548      0.005217
      1.34028      5.51879     13.55049        -0.017169      0.000813     -0.000510
      2.70777      6.25349      7.26803        -0.021959     -0.069389     -0.813708
      2.73095      6.26244     11.50193        -0.018786      0.007407      0.016043
      4.06179      5.47174      5.13406         0.038865     -0.242708      0.830305
      4.06741      5.46821      9.38962        -0.008923      0.002340     -0.007687
      4.07006      5.54965     13.60780        -0.003894      0.003584     -0.011858
      5.41560      6.25349      7.26803        -0.017483      0.016331     -0.831981
      5.41337      6.25635     11.54162         0.007269      0.012510     -0.036734
      6.76962      5.47174      5.13406        -0.028704     -0.111125      0.624177
      6.77020      5.46777      9.38544        -0.000693      0.007130     -0.015253
      6.77542      5.46089     13.57741        -0.005916      0.005016     -0.020959
[...]
     -0.04056      7.78616     13.57288        -0.005037      0.008145      0.012322
      1.35386      8.59853      7.26803        -0.008472     -0.029922     -0.627675
      1.37236      8.60277     11.50671        -0.002899     -0.002910      0.000700
      2.70788      7.81679      5.13406        -0.193498      0.114682      0.872053
      2.72423      7.82337      9.38714        -0.005007      0.020820     -0.018193
      2.79917      7.80124     13.61116        -0.009109      0.013795     -0.004838
      4.06168      8.59853      7.26803         0.104587      0.030979     -0.899670
      4.06082      8.59184     11.52017         0.000964     -0.003503     -0.023982
      5.41570      7.81679      5.13406         0.062084      0.195732      0.820003
      5.42003      7.81916      9.39345        -0.006781     -0.005508     -0.003665
      5.37668      7.81333     13.59105        -0.013531      0.002330     -0.003682
      1.36273      3.05480     15.30981         0.006983      0.006846     -0.045654
      1.37087      3.88035     15.91127         0.019373     -0.002967      0.031688
      5.43433      4.69193     14.65237        -0.023436     -0.000032      0.020331
      1.35836      2.22988     15.91319        -0.015038     -0.040853      0.022764
    total drift:                                0.042617     -0.037648     -0.219062

  FREE ENERGIE OF THE ION-ELECTRON SYSTEM (eV)
  free  energy   TOTEN  =      -731.09757785 eV

  energy  without entropy=     -731.13318773  energy(sigma->0) =     -731.10944781

 d Force = 0.5998666E-03[ 0.506E-03, 0.693E-03]  d Energy = 0.6120612E-03-0.122E-04
 d Force =-0.7811014E+01[-0.782E+01,-0.781E+01]  d Ewald  =-0.7811019E+01 0.551E-05

 stress matrix after NEB project (eV)
     -7.20470      2.36161     -1.35958
      2.36161     -7.97449      0.04315
     -1.35958      0.04315    -29.48554
  FORCES: max atom, RMS     0.049125    0.018449
  FORCE total and by dimension    0.169084    0.045654
  Stress total and by dimension   31.618856   29.485536
 Conjugate gradient step on ions:
 trial-energy change:   -0.000612  1 .order   -0.000600   -0.000693   -0.000506
  (g-gl).g = 0.967E-03      g.g   = 0.878E-03  gl.gl    = 0.191E-02
 g(Force)  = 0.878E-03   g(Stress)= 0.000E+00 ortho     = 0.771E-04
 gamma     =   0.50698
 trial     =   0.75636
 opt step  =   2.80523  (harmonic =   2.80523) maximal distance =0.00769560
 next E    =  -731.098252   (d E  =  -0.00129)

 reached required accuracy - stopping structural energy minimisation
 writing wavefunctions