 vasp.5.4.4.18Apr17-6-g9f103f2a35 (build Feb 23 2022 11:43:59) gamma-only

 executed on             LinuxIFC date 2024.07.19  15:44:54

 INCAR:
 POTCAR:    PAW_PBE Ru_pv 28Jan2005
 POTCAR:    PAW_PBE N 08Apr2002
 POTCAR:    PAW_PBE H 15Jun2001
 POTCAR:    PAW_PBE Ru_pv 28Jan2005
   VRHFIN =Ru: 4p5s4d

   TITEL  = PAW_PBE Ru_pv 28Jan2005
   POMASS =  101.070; ZVAL   =   14.000    mass and valenz
   ENMAX  =  240.049; ENMIN  =  180.037 eV

 POTCAR:    PAW_PBE N 08Apr2002
   VRHFIN =N: s2p3

   TITEL  = PAW_PBE N 08Apr2002
   POMASS =   14.001; ZVAL   =    5.000    mass and valenz
   ENMAX  =  400.000; ENMIN  =  300.000 eV

 POTCAR:    PAW_PBE H 15Jun2001
   VRHFIN =H: ultrasoft test

   TITEL  = PAW_PBE H 15Jun2001
   POMASS =    1.000; ZVAL   =    1.000    mass and valenz
   ENMAX  =  250.000; ENMIN  =  200.000 eV

 Optimization of the real space projectors (new method)

 maximal supplied QI-value         = 15.12
 optimisation between [QCUT,QGAM] = [ 11.34, 22.83] = [ 36.00,145.93] Ry
 Optimized for a Real-space Cutoff    1.43 Angstroem

   l    n(q)    QCUT    max X(q) W(low)/X(q) W(high)/X(q)  e(spline)
   1      9    11.338     3.180    0.41E-04    0.57E-05    0.54E-07
   1      9    11.338     5.351    0.17E-03    0.94E-04    0.32E-06
   2      9    11.338    66.565    0.29E-03    0.11E-04    0.27E-06
   2      9    11.338    63.466    0.30E-03    0.11E-04    0.28E-06
   0     10    11.338    85.644    0.87E-04    0.33E-04    0.16E-06
   0     10    11.338    44.119    0.80E-04    0.30E-04    0.15E-06
 Optimization of the real space projectors (new method)

[...]

   l    n(q)    QCUT    max X(q) W(low)/X(q) W(high)/X(q)  e(spline)
   0      9    11.310    79.467    0.75E-04    0.16E-03    0.36E-06
   0      9    11.310    66.151    0.74E-04    0.16E-03    0.36E-06
   1      8    11.310    17.416    0.35E-03    0.12E-03    0.95E-06
   1      8    11.310    12.382    0.37E-03    0.13E-03    0.98E-06
 Optimization of the real space projectors (new method)

 maximal supplied QI-value         = 34.20
 optimisation between [QCUT,QGAM] = [ 11.29, 22.57] = [ 35.68,142.71] Ry
 Optimized for a Real-space Cutoff    1.16 Angstroem

   l    n(q)    QCUT    max X(q) W(low)/X(q) W(high)/X(q)  e(spline)
   0      8    11.287    19.460    0.40E-03    0.73E-03    0.16E-06
   0      8    11.287    12.209    0.38E-03    0.70E-03    0.15E-06
   1      7    11.287     4.655    0.22E-03    0.25E-04    0.22E-06
  PAW_PBE Ru_pv 28Jan2005               :
  PAW_PBE N 08Apr2002                   :
  PAW_PBE H 15Jun2001                   :

 POSCAR: Ru  N  H
  positions in cartesian coordinates
 exchange correlation table for  LEXCH =        8
   RHO(1)=    0.500       N(1)  =     2000
   RHO(2)=  100.500       N(2)  =     4000

 VTST: version 3.2, (02/03/18)

 CHAIN: initializing optimizer

 OPT: Using VASP Conjugate-Gradient optimizer
 CHAIN: Read ICHAIN            0

 POSCAR: Ru  N  H
  positions in cartesian coordinates

 ion  position               nearest neighbor table
   1  0.083  0.167  0.283-  19 2.63   4 2.64  24 2.64  18 2.65  23 2.65   3 2.65  61 2.71  76 2.71
                            21 2.71  26 2.71   6 2.71  16 2.71
   2  0.083  0.167  0.449-  25 2.58   5 2.59  20 2.59   4 2.65  24 2.65  19 2.65  17 2.71  77 2.71
                            27 2.71  62 2.71   7 2.71  22 2.71
   3  0.167  0.083  0.200-  61 2.65   6 2.65   1 2.65  18 2.71  78 2.71   8 2.71  28 2.71  23 2.71
                            63 2.71
   4  0.167  0.083  0.366-   6 2.64  61 2.64   1 2.64   7 2.64  62 2.65   2 2.65   9 2.71  29 2.71
                            19 2.71  79 2.71  64 2.71  24 2.71
   5  0.164  0.080  0.529-  62 2.57   7 2.59   2 2.59  65 2.68  80 2.71  10 2.72  30 2.72  20 2.73
                            25 2.75
   6  0.333  0.167  0.283-   9 2.64   4 2.64  29 2.64  28 2.65   3 2.65   8 2.65  66 2.71  11 2.71
                            31 2.71  61 2.71  26 2.71   1 2.71
   7  0.333  0.166  0.449-   5 2.59  10 2.59  30 2.61   4 2.64   9 2.65  29 2.65  67 2.70  62 2.70
                             2 2.71  12 2.71  32 2.72  27 2.73
   8  0.417  0.083  0.200-  66 2.65  11 2.65   6 2.65   3 2.71  28 2.71  63 2.71  33 2.71  68 2.71
                            13 2.71
   9  0.417  0.083  0.366-   6 2.64  11 2.64  66 2.64  67 2.64   7 2.65  12 2.65   4 2.71  29 2.71
                            34 2.71  14 2.71  69 2.71  64 2.71
  10  0.415  0.079  0.529-  67 2.56   7 2.59  12 2.60  65 2.65  70 2.68   5 2.72  15 2.73  30 2.74
                            35 2.77
  11  0.583  0.167  0.283-  14 2.64  34 2.64   9 2.64   8 2.65  33 2.65  13 2.65  66 2.71  71 2.71
                             6 2.71  31 2.71  36 2.71  16 2.71
  12  0.583  0.166  0.449-  35 2.58  15 2.59  10 2.60  14 2.64   9 2.65  34 2.65  72 2.70  17 2.71
                            67 2.71  32 2.71  37 2.71   7 2.71
  13  0.667  0.083  0.200-  16 2.65  71 2.65  11 2.65  18 2.71  38 2.71  33 2.71  73 2.71  68 2.71
                             8 2.71
  14  0.667  0.083  0.366-  11 2.64  71 2.64  16 2.64  17 2.64  72 2.64  12 2.64  69 2.70  74 2.71
                            34 2.71   9 2.71  39 2.71  19 2.71
  15  0.671  0.087  0.529-  17 2.57  12 2.59  72 2.61  40 2.63  35 2.66  20 2.66  10 2.73  75 2.74
                            70 2.79
  16  0.833  0.167  0.283-  39 2.64  19 2.64  14 2.64  13 2.65  38 2.65  18 2.65  76 2.71  71 2.71
                            36 2.71  11 2.71  21 2.71   1 2.71
  17  0.833  0.167  0.449-  15 2.57  40 2.57  20 2.57  14 2.64  19 2.64  39 2.64  72 2.70  77 2.70
                             2 2.71  12 2.71  22 2.71  37 2.71
  18  0.917  0.083  0.200-   1 2.65  76 2.65  16 2.65   3 2.71  23 2.71  13 2.71  38 2.71  73 2.71
                            78 2.71
  19  0.917  0.083  0.366-   1 2.63  76 2.64  16 2.64  17 2.64  77 2.64   2 2.65  79 2.71  74 2.71
                             4 2.71  24 2.71  14 2.71  39 2.71
  20  0.916  0.086  0.529-  17 2.57   2 2.59  77 2.60  40 2.65  15 2.66  25 2.67  75 2.72   5 2.73
                            80 2.76
  21  0.083  0.417  0.283-  39 2.63  44 2.64  24 2.64  38 2.65  43 2.65  23 2.65   1 2.71  26 2.71
                            16 2.71  46 2.71  36 2.71  41 2.71
  22  0.083  0.417  0.449-  25 2.56  45 2.60  40 2.60  44 2.64  24 2.64  39 2.65  27 2.70  37 2.70
                            42 2.71  47 2.71  17 2.71   2 2.71
  23  0.167  0.333  0.200-   1 2.65  26 2.65  21 2.65  43 2.71  38 2.71  48 2.71  18 2.71  28 2.71
                             3 2.71
  24  0.167  0.333  0.366-  26 2.64  21 2.64   1 2.64  27 2.64  22 2.64   2 2.65  49 2.71  29 2.71
                            39 2.71  19 2.71   4 2.71  44 2.71
  25  0.162  0.333  0.529-  22 2.56   2 2.58  27 2.60  40 2.67  20 2.67  45 2.69  30 2.75   5 2.75
                            50 2.75
  26  0.333  0.417  0.283-  49 2.64  24 2.64  29 2.64  48 2.65  23 2.65  28 2.65  31 2.71   6 2.71
                            51 2.71   1 2.71  21 2.71  46 2.71
  27  0.333  0.417  0.449-  25 2.60  50 2.60  30 2.62  24 2.64  49 2.65  29 2.65  22 2.70  47 2.70
                             2 2.71  52 2.71   7 2.73  32 2.73
  28  0.417  0.333  0.200-  31 2.65   6 2.65  26 2.65  48 2.71  53 2.71  23 2.71   3 2.71   8 2.71
                            33 2.71
  29  0.417  0.333  0.366-   6 2.64  26 2.64  31 2.64  32 2.65   7 2.65  27 2.65   4 2.71   9 2.71
                            24 2.71  54 2.71  49 2.71  34 2.71
  30  0.415  0.332  0.531-  81 2.25   7 2.61  27 2.62  32 2.63   5 2.72  10 2.74  25 2.75  35 2.77
                            50 2.78  55 2.79
  31  0.583  0.417  0.283-  54 2.64  34 2.64  29 2.64  28 2.65  53 2.65  33 2.65  26 2.71   6 2.71
                            11 2.71  36 2.71  56 2.71  51 2.71
  32  0.584  0.417  0.449-  35 2.61  55 2.61  30 2.63  34 2.65  54 2.65  29 2.65  37 2.70  57 2.70
                            12 2.71  52 2.71   7 2.72  27 2.73
  33  0.667  0.333  0.200-  36 2.65  11 2.65  31 2.65  53 2.71  58 2.71  38 2.71  13 2.71   8 2.71
                            28 2.71
  34  0.667  0.333  0.366-  31 2.64  11 2.64  36 2.64  37 2.64  32 2.65  12 2.65   9 2.71  54 2.71
                            29 2.71  14 2.71  39 2.71  59 2.71
  35  0.672  0.333  0.529-  37 2.56  12 2.58  32 2.61  40 2.64  15 2.66  60 2.67  55 2.77  10 2.77
                            30 2.77
  36  0.833  0.417  0.283-  39 2.63  59 2.64  34 2.64  33 2.65  58 2.65  38 2.65  11 2.71  16 2.71
                            31 2.71  21 2.71  41 2.71  56 2.71
  37  0.834  0.417  0.449-  35 2.56  60 2.59  40 2.59  34 2.64  59 2.64  39 2.64  32 2.70  22 2.70
                            42 2.71  57 2.71  17 2.71  12 2.71
  38  0.917  0.333  0.200-  21 2.65  16 2.65  36 2.65  43 2.71  58 2.71  23 2.71  33 2.71  13 2.71
                            18 2.71
  39  0.917  0.333  0.366-  21 2.63  36 2.63  16 2.64  17 2.64  37 2.64  22 2.65  44 2.71  59 2.71
                            24 2.71  34 2.71  14 2.71  19 2.71
  40  0.914  0.330  0.529-  17 2.57  37 2.59  22 2.60  15 2.63  35 2.64  20 2.65  25 2.67  60 2.76
                            45 2.78
  41  0.083  0.667  0.283-  44 2.63  59 2.63  64 2.63  63 2.65  58 2.65  43 2.65  61 2.71  66 2.71
                            46 2.71  56 2.71  36 2.71  21 2.71
  42  0.083  0.667  0.449-  65 2.60  45 2.60  60 2.60  64 2.65  59 2.65  44 2.65  62 2.70  22 2.71
                            67 2.71  37 2.71  57 2.71  47 2.71
  43  0.167  0.583  0.200-  21 2.65  46 2.65  41 2.65  23 2.71  38 2.71  58 2.71  63 2.71  68 2.71
                            48 2.71
  44  0.167  0.583  0.366-  41 2.63  46 2.64  21 2.64  47 2.64  22 2.64  42 2.65  59 2.70  64 2.70
                            39 2.71  24 2.71  49 2.71  69 2.71
  45  0.171  0.586  0.529-  47 2.56  42 2.60  22 2.60  50 2.63  70 2.63  25 2.69  65 2.71  40 2.78
                            60 2.78
  46  0.333  0.667  0.283-  44 2.64  49 2.64  69 2.64  68 2.65  43 2.65  48 2.65  51 2.71  71 2.71
                            66 2.71  41 2.71  21 2.71  26 2.71
  47  0.333  0.667  0.449-  50 2.55  45 2.56  70 2.57  69 2.64  44 2.64  49 2.64  27 2.70  67 2.70
                            42 2.71  22 2.71  52 2.71  72 2.71
  48  0.417  0.583  0.200-  26 2.65  51 2.65  46 2.65  28 2.71  23 2.71  68 2.71  43 2.71  73 2.71
                            53 2.71
  49  0.417  0.583  0.366-  26 2.64  46 2.64  51 2.64  47 2.64  52 2.65  27 2.65  24 2.71  54 2.71
                            29 2.71  74 2.71  69 2.71  44 2.71
  50  0.415  0.588  0.529-  47 2.55  52 2.59  27 2.60  45 2.63  70 2.63  75 2.69  25 2.75  30 2.78
                            55 2.79
  51  0.583  0.667  0.283-  54 2.64  49 2.64  74 2.64  73 2.65  48 2.65  53 2.65  46 2.71  71 2.71
                            76 2.71  26 2.71  56 2.71  31 2.71
  52  0.583  0.667  0.449-  75 2.58  55 2.59  50 2.59  74 2.64  49 2.65  54 2.65  72 2.71  77 2.71
                            57 2.71  47 2.71  27 2.71  32 2.71
  53  0.667  0.583  0.200-  56 2.65  31 2.65  51 2.65  33 2.71  73 2.71  78 2.71  28 2.71  58 2.71
                            48 2.71
  54  0.667  0.583  0.366-  31 2.64  51 2.64  56 2.64  57 2.64  52 2.65  32 2.65  49 2.71  29 2.71
                            34 2.71  74 2.71  79 2.71  59 2.71
[...]
   -.373E+00 0.236E+01 0.332E+04   0.398E+00 -.249E+01 -.332E+04   0.123E-03 -.427E-01 -.732E+00   -.358E-01 0.331E-01 0.298E-01
   -.139E+01 -.261E+02 -.320E+04   0.136E+01 0.265E+02 0.320E+04   0.377E-01 -.456E+00 0.237E+00   -.624E-02 0.671E-02 0.829E-01
   0.339E+00 0.314E+00 0.654E+04   -.208E+00 -.387E+00 -.654E+04   0.350E-01 0.215E-01 -.441E+01   -.556E-01 0.121E-01 -.316E-01
   -.445E+01 0.815E+01 0.550E+02   0.448E+01 -.805E+01 -.552E+02   -.136E-01 -.102E+00 0.868E-01   -.114E-01 -.846E-02 0.913E-01
   -.684E+02 -.230E+02 -.645E+04   0.683E+02 0.224E+02 0.645E+04   0.156E+00 0.558E+00 0.427E+01   -.198E-01 -.211E-02 0.447E-01
   0.194E+01 0.184E+01 0.332E+04   -.193E+01 -.189E+01 -.332E+04   0.368E-01 0.152E-02 -.658E+00   -.193E-01 0.560E-01 0.569E-01
   0.148E+02 0.119E+02 -.319E+04   -.148E+02 -.119E+02 0.319E+04   -.527E-01 -.138E-01 0.458E+00   -.647E-03 0.340E-01 0.871E-01
   0.139E+00 -.104E+00 0.654E+04   -.212E+00 -.271E-01 -.654E+04   0.140E-01 -.237E-01 -.432E+01   0.783E-02 0.305E-01 -.298E-01
   0.348E+01 -.177E+01 0.710E+02   -.336E+01 0.165E+01 -.712E+02   -.119E+00 0.949E-01 0.100E+00   0.208E-03 0.138E-01 0.102E+00
   0.214E+01 0.131E+03 -.653E+04   -.207E+01 -.130E+03 0.652E+04   -.510E-01 -.842E+00 0.435E+01   -.526E-02 0.430E-01 0.309E-01
   -.206E+01 -.235E+01 0.332E+04   0.202E+01 0.235E+01 -.332E+04   -.136E-02 0.255E-01 -.715E+00   0.434E-01 0.686E-01 0.528E-01
   -.120E+02 0.166E+02 -.317E+04   0.119E+02 -.167E+02 0.317E+04   0.744E-01 0.923E-01 0.382E+00   0.170E-02 0.378E-01 0.887E-01
   -.406E+00 -.239E+00 0.654E+04   0.393E+00 0.178E+00 -.654E+04   -.477E-01 0.333E-02 -.435E+01   0.547E-01 0.470E-01 -.200E-01
   -.750E+01 -.429E+01 0.578E+02   0.736E+01 0.417E+01 -.580E+02   0.109E+00 0.106E+00 0.116E+00   0.278E-01 0.177E-01 0.740E-01
   -.204E+02 0.762E+02 -.651E+04   0.201E+02 -.758E+02 0.651E+04   0.235E+00 -.374E+00 0.439E+01   0.177E-01 0.378E-01 0.440E-01
   -.648E+00 0.275E+01 0.331E+04   0.640E+00 -.282E+01 -.331E+04   0.547E-01 -.178E-01 -.753E+00   0.207E-01 0.425E-01 -.695E-02
   0.254E+02 -.967E+01 -.319E+04   -.253E+02 0.966E+01 0.318E+04   -.911E-01 -.209E-01 0.410E+00   -.170E-01 0.275E-01 0.100E+00
   0.191E-01 0.506E-01 0.654E+04   -.763E-01 -.179E+00 -.654E+04   0.107E-01 -.994E-02 -.436E+01   0.134E-01 0.771E-01 -.256E-02
   0.868E+01 0.206E+01 0.572E+02   -.856E+01 -.213E+01 -.574E+02   -.111E+00 0.413E-01 0.115E+00   -.685E-02 0.281E-01 0.427E-01
   -.187E+02 0.156E+02 -.648E+04   0.180E+02 -.155E+02 0.648E+04   0.734E+00 -.924E-01 0.448E+01   -.120E-01 0.286E-01 0.375E-01
   0.144E+00 -.104E+01 0.332E+04   -.183E+00 0.104E+01 -.332E+04   -.243E-01 0.114E-01 -.725E+00   -.211E-01 0.351E-01 -.205E-01
   -.208E+02 0.619E+01 -.324E+04   0.211E+02 -.646E+01 0.324E+04   -.282E+00 0.257E+00 0.150E+00   -.156E-01 0.790E-02 0.866E-01
   0.244E+00 0.258E+00 0.654E+04   -.200E+00 -.180E+00 -.654E+04   0.458E-01 0.194E-01 -.502E+01   -.385E-01 0.803E-01 -.161E-01
   -.199E+01 -.621E+01 0.454E+02   0.199E+01 0.614E+01 -.458E+02   0.191E-01 0.431E-01 0.280E+00   -.803E-02 0.371E-01 0.611E-01
   -.322E+01 -.181E+02 -.630E+04   0.306E+01 0.178E+02 0.630E+04   0.158E+00 0.262E+00 0.291E+01   -.479E-02 0.104E-01 0.297E-01
   0.199E+01 -.498E+00 0.332E+04   -.193E+01 0.484E+00 -.332E+04   0.243E-01 0.120E-01 -.704E+00   -.159E-01 0.524E-01 0.266E-02
   0.231E+02 0.762E+01 -.324E+04   -.235E+02 -.788E+01 0.324E+04   0.318E+00 0.252E+00 0.129E+00   0.172E-01 0.489E-02 0.820E-01
   0.191E+00 0.322E+00 0.654E+04   -.143E+00 -.359E+00 -.654E+04   -.873E-02 0.543E-03 -.436E+01   -.195E-01 0.982E-01 -.123E-01
   0.832E-01 0.205E+01 0.633E+02   -.159E+00 -.212E+01 -.635E+02   0.737E-01 0.201E-01 0.118E+00   0.124E-02 0.410E-01 0.753E-01
   0.401E+02 -.325E+01 -.648E+04   -.392E+02 0.321E+01 0.648E+04   -.921E+00 0.646E-03 0.430E+01   0.129E-01 0.251E-01 0.248E-01
   -.145E+01 0.339E+01 0.332E+04   0.145E+01 -.349E+01 -.332E+04   -.552E-01 -.152E-01 -.773E+00   0.163E-01 0.631E-01 0.102E-01
   -.273E+02 -.132E+02 -.318E+04   0.272E+02 0.132E+02 0.318E+04   0.551E-01 -.392E-01 0.450E+00   0.801E-02 0.191E-01 0.999E-01
   -.426E+00 0.147E+00 0.654E+04   0.404E+00 -.227E+00 -.654E+04   -.393E-01 -.987E-02 -.436E+01   0.447E-01 0.105E+00 -.508E-02
   -.669E+01 -.514E+00 0.566E+02   0.668E+01 0.563E+00 -.568E+02   0.596E-02 -.980E-01 0.119E+00   0.156E-01 0.485E-01 0.731E-01
   -.192E+02 -.949E+02 -.651E+04   0.192E+02 0.942E+02 0.650E+04   0.372E-01 0.696E+00 0.417E+01   -.170E-02 0.477E-01 0.253E-01
   -.199E+01 -.224E+01 0.332E+04   0.202E+01 0.231E+01 -.332E+04   0.418E-03 -.834E-02 -.818E+00   0.608E-02 -.323E-01 0.610E-02
   0.497E+01 0.200E+01 -.323E+04   -.498E+01 -.203E+01 0.323E+04   0.164E-01 0.521E-01 0.460E+00   -.295E-02 -.176E-01 0.984E-01
   -.411E+00 -.726E-01 0.654E+04   0.316E+00 0.345E-01 -.654E+04   -.115E+00 0.769E-01 -.440E+01   0.144E-02 -.367E-01 -.269E-02
   0.323E+01 0.437E+01 0.652E+02   -.322E+01 -.437E+01 -.653E+02   0.583E-02 0.106E-01 0.113E+00   -.190E-01 -.785E-02 0.531E-01
   0.115E+03 0.713E+01 -.651E+04   -.114E+03 -.698E+01 0.650E+04   -.799E+00 -.148E+00 0.428E+01   -.309E-01 -.356E-02 0.349E-01
   -.173E+01 -.660E+00 0.332E+04   0.174E+01 0.780E+00 -.332E+04   0.340E-01 -.228E-01 -.748E+00   -.178E-01 -.772E-01 0.882E-02
   0.337E+01 -.548E+01 -.316E+04   -.335E+01 0.552E+01 0.316E+04   0.615E-02 -.428E-03 0.484E+00   -.297E-01 -.349E-01 0.887E-01
   0.239E+00 -.619E-03 0.654E+04   -.673E-01 0.217E-01 -.654E+04   0.139E-01 0.944E-02 -.445E+01   -.978E-02 -.636E-01 -.113E-01
   -.490E+01 -.112E+01 0.540E+02   0.496E+01 0.110E+01 -.542E+02   -.445E-01 0.481E-01 0.119E+00   -.808E-02 -.219E-01 0.479E-01
   -.956E+01 0.156E+02 -.645E+04   0.926E+01 -.149E+02 0.645E+04   0.325E+00 -.643E+00 0.427E+01   -.222E-01 -.280E-01 0.454E-01
   0.410E+00 0.210E+01 0.331E+04   -.402E+00 -.207E+01 -.331E+04   0.175E-01 -.694E-02 -.673E+00   -.515E-02 -.748E-01 0.624E-02
   0.104E+02 0.173E+02 -.316E+04   -.104E+02 -.171E+02 0.316E+04   0.194E-01 -.132E+00 0.469E+00   -.294E-02 -.382E-01 0.788E-01
   0.306E+00 -.181E+00 0.654E+04   -.371E+00 0.137E+00 -.654E+04   0.707E-02 -.152E-01 -.439E+01   -.201E-01 -.364E-01 -.535E-02
   0.649E+01 -.251E+00 0.552E+02   -.654E+01 0.196E+00 -.553E+02   0.384E-01 0.692E-01 0.111E+00   0.349E-02 -.148E-01 0.474E-01
   0.103E+02 0.577E+02 -.646E+04   -.999E+01 -.569E+02 0.645E+04   -.349E+00 -.802E+00 0.419E+01   0.149E-01 -.191E-01 0.424E-01
   0.343E+01 -.220E+01 0.332E+04   -.348E+01 0.226E+01 -.332E+04   -.433E-01 -.344E-01 -.768E+00   0.168E-01 -.387E-01 0.182E-01
   -.190E+02 -.881E+01 -.316E+04   0.190E+02 0.881E+01 0.316E+04   -.622E-01 0.264E-01 0.485E+00   0.366E-01 -.287E-01 0.873E-01
   -.105E+00 -.282E+00 0.654E+04   0.108E+00 0.189E+00 -.654E+04   0.698E-01 0.433E-01 -.442E+01   0.283E-01 -.362E-02 -.619E-02
   -.517E+01 -.982E+00 0.730E+02   0.514E+01 0.972E+00 -.732E+02   0.990E-02 0.469E-02 0.168E+00   0.238E-01 0.415E-02 0.682E-01
   -.116E+03 -.341E+02 -.651E+04   0.115E+03 0.339E+02 0.650E+04   0.797E+00 0.162E+00 0.430E+01   0.326E-01 -.927E-02 0.233E-01
[...]
   0.339E+01 0.118E+01 0.332E+04   -.343E+01 -.113E+01 -.332E+04   -.419E-01 -.206E-01 -.698E+00   -.317E-02 -.588E-01 0.637E-01
   -.232E+01 -.884E+01 -.325E+04   0.234E+01 0.882E+01 0.325E+04   -.108E-01 0.203E-01 0.384E+00   -.775E-02 0.434E-02 0.696E-01
   -.630E-01 0.289E+00 0.654E+04   -.775E-02 -.157E+00 -.654E+04   -.396E-01 0.530E-01 -.428E+01   0.144E-01 -.103E+00 -.234E-01
   -.158E+01 0.401E+01 0.746E+02   0.154E+01 -.381E+01 -.748E+02   0.300E-01 -.152E+00 0.547E-01   0.640E-02 -.368E-01 0.672E-01
   0.667E+02 -.119E+03 -.654E+04   -.662E+02 0.119E+03 0.653E+04   -.551E+00 0.674E+00 0.428E+01   0.294E-02 -.247E-01 0.445E-01
   -.324E+01 -.383E+00 0.332E+04   0.323E+01 0.393E+00 -.332E+04   0.468E-01 -.232E-01 -.708E+00   0.368E-01 -.277E-01 0.500E-01
   -.226E+01 -.287E+02 -.321E+04   0.218E+01 0.286E+02 0.321E+04   0.679E-01 0.362E-01 0.355E+00   0.169E-01 0.664E-02 0.758E-01
   -.200E+00 -.345E+00 0.654E+04   0.134E+00 0.480E+00 -.654E+04   0.321E-02 -.432E-01 -.438E+01   0.375E-01 -.532E-01 -.142E-01
   -.320E+01 -.776E+01 0.601E+02   0.327E+01 0.777E+01 -.603E+02   -.100E+00 0.202E-01 0.141E+00   0.307E-01 -.174E-01 0.620E-01
   -.542E+02 -.680E+02 -.651E+04   0.538E+02 0.678E+02 0.651E+04   0.332E+00 0.279E+00 0.437E+01   0.451E-01 -.166E-01 0.483E-01
   0.547E+00 -.421E+00 -.243E+04   -.457E+00 0.175E-01 0.241E+04   -.806E-01 0.413E+00 0.172E+02   -.432E-02 -.205E-02 -.795E-02
   0.523E+02 -.417E+02 -.487E+03   -.577E+02 0.461E+02 0.489E+03   0.546E+01 -.437E+01 -.228E+01   -.972E-03 0.315E-03 -.167E-02
   -.615E+02 -.251E+02 -.487E+03   0.680E+02 0.278E+02 0.489E+03   -.645E+01 -.263E+01 -.238E+01   0.446E-03 0.281E-03 -.130E-02
   0.996E+01 0.650E+02 -.487E+03   -.110E+02 -.718E+02 0.490E+03   0.103E+01 0.681E+01 -.259E+01   -.579E-03 0.416E-04 -.129E-02
   0.161E+00 -.220E+00 -.681E+01   0.924E-12 -.523E-11 0.143E-10   -.162E+00 0.258E+00 0.332E+01   -.877E-02 0.263E-02 0.321E+01

 POSITION                                       TOTAL-FORCE (eV/Angst)
     -0.00005      1.56339      7.26803        -0.043845     -0.001418     -0.667031
      0.00180      1.57197     11.53375        -0.000220      0.001840     -0.007354
      1.35397      0.78165      5.13406        -0.079447     -0.021676      0.799853
      1.35866      0.79280      9.39667        -0.005046     -0.010042     -0.006739
      1.38424      0.73131     13.58680         0.004722     -0.007890      0.001985
      2.70777      1.56339      7.26803        -0.010899     -0.145460     -0.789958
      2.70289      1.56094     11.53612        -0.002267     -0.003301     -0.006325
      4.06179      0.78165      5.13406         0.111190     -0.040626      0.748823
      4.05203      0.79392      9.40089         0.003211     -0.007794     -0.002346
      4.04854      0.72515     13.57454        -0.003903      0.009359      0.006084
      5.41560      1.56339      7.26803         0.026993      0.011324     -0.686746
      5.42644      1.56977     11.51517        -0.000940     -0.000701     -0.005090
      6.76962      0.78165      5.13406        -0.051945     -0.124428      0.718091
      6.76809      0.77662      9.38583         0.004750     -0.005867     -0.008749
      6.76291      0.85785     13.60682         0.012591      0.003827      0.000120
      8.12342      1.56339      7.26803         0.010906      0.089277     -0.803346
      8.11461      1.55146     11.51824         0.002408     -0.007617     -0.005665
      9.47744      0.78165      5.13406        -0.005887     -0.011285      0.667840
      9.47790      0.77930      9.39102        -0.000168     -0.003214     -0.008522
      9.45461      0.82006     13.59314        -0.004339      0.007874      0.007220
     -1.35397      3.90844      7.26803         0.067228     -0.042967     -0.828922
     -1.34645      3.90422     11.52126        -0.001061     -0.001092      0.005479
      0.00005      3.12670      5.13406        -0.033020     -0.061718      0.888700
      0.01030      3.12542      9.39495        -0.006205     -0.000036     -0.007877
     -0.08330      3.14452     13.60132         0.008169      0.016922      0.002600
      1.35386      3.90844      7.26803        -0.084078      0.049349     -0.715593
      1.34512      3.90923     11.54796        -0.003123     -0.006526     -0.005402
      2.70788      3.12670      5.13406         0.051246      0.176987      0.645077
      2.70503      3.12715      9.39409         0.006779      0.011201     -0.009056
      2.70608      3.12267     13.63275        -0.006527     -0.012707     -0.002632
      4.06168      3.90844      7.26803         0.066840      0.049044     -0.679135
      4.07024      3.90713     11.54670        -0.001841     -0.004111     -0.002936
      5.41570      3.12670      5.13406         0.019826      0.061069      0.859878
      5.40880      3.12948      9.39218        -0.001275     -0.002297     -0.008849
      5.50210      3.13112     13.60102         0.002855     -0.009134      0.002631
      6.76951      3.90844      7.26803        -0.043889     -0.050497     -0.875291
      6.76241      3.91036     11.52046        -0.005879     -0.008526     -0.007586
      8.12353      3.12670      5.13406        -0.016463      0.015974      0.870024
      8.12058      3.12560      9.39532         0.005248     -0.001081     -0.000144
      8.11648      3.05061     13.58615        -0.009086      0.008631     -0.004245
     -2.70788      6.25349      7.26803         0.029232      0.030253     -0.643094
     -2.71180      6.24611     11.52023         0.001848      0.005912     -0.003650
     -1.35386      5.47174      5.13406        -0.207442      0.001678      0.779511
     -1.35376      5.47405      9.38750        -0.002657     -0.001278      0.003347
     -1.29629      5.47807     13.57642         0.000891      0.000953      0.005391
     -0.00005      6.25349      7.26803         0.030932      0.020074     -0.851433
     -0.00273      6.25447     11.51929        -0.002315      0.004952     -0.000215
      1.35397      5.47174      5.13406         0.175894     -0.033642      0.684870
      1.35079      5.46040      9.39863         0.001275     -0.000575      0.010021
      1.33098      5.54538     13.57518        -0.004722     -0.006885     -0.002125
      2.70777      6.25349      7.26803         0.020339     -0.050305     -0.732379
      2.71039      6.27233     11.50958         0.003846      0.005557      0.009515
      4.06179      5.47174      5.13406        -0.078128     -0.096605      0.827260
      4.06279      5.46342      9.39806        -0.000745     -0.001180     -0.000759
      4.08888      5.55622     13.58318        -0.011088      0.008656      0.003555
      5.41560      6.25349      7.26803        -0.077313     -0.012405     -0.901163
      5.42059      6.25218     11.51973        -0.006930     -0.001918     -0.001526
      6.76962      5.47174      5.13406         0.100633     -0.053780      0.637401
      6.76813      5.47074      9.38004        -0.000197     -0.001793     -0.000179
      6.71174      5.45580     13.57282        -0.002336     -0.002972     -0.005334
[...]
     -0.06012      7.77867     13.58636         0.015588      0.001439     -0.003106
      1.35386      8.59853      7.26803        -0.084340     -0.030323     -0.676915
      1.35884      8.59964     11.52408         0.000736      0.003895     -0.010327
      2.70788      7.81679      5.13406        -0.095873      0.082194      0.831080
      2.70442      7.82100      9.38498        -0.001098      0.007370     -0.004823
      2.75387      7.74862     13.61735        -0.004202      0.004517     -0.005726
      4.06168      8.59853      7.26803         0.076987     -0.042261     -0.758290
      4.05344      8.59239     11.51861        -0.000671      0.009051      0.002367
      5.41570      7.81679      5.13406        -0.024896      0.038857      0.781687
      5.41509      7.81353      9.39329        -0.005117      0.006628      0.001705
      5.38549      7.78010     13.58627         0.009837      0.009464     -0.005859
      2.69495      3.15602     15.85636         0.005310      0.006987      0.021851
      1.94231      3.75952     16.19784         0.023961     -0.024866     -0.025585
      3.58344      3.51900     16.21117        -0.026056     -0.012092     -0.025836
      2.55362      2.21798     16.23945         0.010633      0.017246     -0.030943
    total drift:                               -0.009914      0.041058     -0.269928

  FREE ENERGIE OF THE ION-ELECTRON SYSTEM (eV)
  free  energy   TOTEN  =      -731.08634853 eV

  energy  without entropy=     -731.10216770  energy(sigma->0) =     -731.09162159

 d Force = 0.3019890E-03[ 0.234E-03, 0.370E-03]  d Energy = 0.3255901E-03-0.236E-04
 d Force = 0.1737285E+01[ 0.173E+01, 0.174E+01]  d Ewald  = 0.1737291E+01-0.566E-05

 stress matrix after NEB project (eV)
     -9.46813      1.04864      0.19819
      1.04864     -7.94879     -0.07960
      0.19819     -0.07960    -29.31012
  FORCES: max atom, RMS     0.042977    0.011028
  FORCE total and by dimension    0.101073    0.030943
  Stress total and by dimension   31.846548   29.310125
 Conjugate gradient step on ions:
 trial-energy change:   -0.000326  1 .order   -0.000302   -0.000370   -0.000234
  (g-gl).g = 0.389E-03      g.g   = 0.456E-03  gl.gl    = 0.687E-03
 g(Force)  = 0.456E-03   g(Stress)= 0.000E+00 ortho     = 0.497E-04
 gamma     =   0.56566
 trial     =   0.76351
 opt step  =   2.08495  (harmonic =   2.08495) maximal distance =0.00149426
 next E    =  -731.086528   (d E  =  -0.00050)

 reached required accuracy - stopping structural energy minimisation
 writing wavefunctions